(set-logic QF_S)
(declare-fun var0 () String)
(assert (RegexIn var0 (RegexConcat (RegexUnion (RegexUnion (Str2Reg "0") (Str2Reg "1")) (RegexUnion (Str2Reg "2") (Str2Reg "3"))) (RegexConcat (RegexPlus (RegexUnion (Str2Reg "4") (Str2Reg "55"))) (RegexConcat (RegexStar (RegexPlus (Str2Reg "66"))) (RegexConcat (RegexStar (RegexStar (Str2Reg "777"))) (RegexConcat (RegexPlus (RegexPlus (Str2Reg "88"))) (RegexConcat (RegexStar (RegexPlus (Str2Reg "999"))) (RegexConcat (RegexStar (RegexStar (Str2Reg "a"))) (RegexConcat (RegexStar (RegexUnion (Str2Reg "bbb") (Str2Reg "cc"))) (RegexConcat (RegexUnion (RegexUnion (Str2Reg "dd") (Str2Reg "e")) (RegexUnion (Str2Reg "fff") (Str2Reg "ggg"))) (RegexConcat (RegexPlus (RegexUnion (Str2Reg "h") (Str2Reg "iii"))) (RegexConcat (RegexPlus (RegexStar (Str2Reg "jj"))) (RegexConcat (RegexStar (RegexStar (Str2Reg "kk"))) (RegexConcat (RegexStar (RegexStar (Str2Reg "lll"))) (RegexConcat (RegexStar (RegexPlus (Str2Reg "mm"))) (RegexConcat (RegexPlus (RegexStar (Str2Reg "nn"))) (RegexConcat (RegexUnion (RegexUnion (Str2Reg "ooo") (Str2Reg "p")) (RegexUnion (Str2Reg "q") (Str2Reg "rrr"))) (RegexConcat (RegexStar (RegexStar (Str2Reg "s"))) (RegexConcat (RegexStar (RegexUnion (Str2Reg "t") (Str2Reg "uu"))) (RegexConcat (RegexUnion (RegexPlus (Str2Reg "v")) (RegexPlus (Str2Reg "www"))) (RegexConcat (RegexUnion (RegexPlus (Str2Reg "xxx")) (RegexPlus (Str2Reg "yyy"))) (RegexUnion (RegexStar (Str2Reg "z")) (RegexStar (Str2Reg "AAA")))))))))))))))))))))))))
(check-sat)